0 307164 
1 305886 
2 304996 
3 302338 
4 301022 
5 299496 
6 296496 
7 294378 
8 293376 
9 292520 
10 289676 
11 285878 
12 284676 
13 282706 
14 282034 
15 281408 
16 279136 
17 278690 
18 275938 
19 274246 
20 272374 
21 270460 
22 269830 
23 269454 
24 267700 
25 263960 
26 259942 
27 259202 
28 258330 
29 250920 
30 250554 
31 246978 
32 244026 
33 243896 
34 241266 
35 240652 
36 240652 

